NAME : rnd38_50.tsp
TYPE : TSP
DIMENSION : 50
EDGE_WEIGHT_TYPE : EUC_2D
NODE_COORD_SECTION
1 924 483
2 120 650
3 60 73
4 543 806
5 355 788
6 871 363
7 653 584
8 302 680
9 467 607
10 913 972
11 634 125
12 761 598
13 45 663
14 671 895
15 253 821
16 842 702
17 148 405
18 874 983
19 917 12
20 776 857
21 891 223
22 979 947
23 150 912
24 612 117
25 703 449
26 409 845
27 514 275
28 786 755
29 438 978
30 369 899
31 913 382
32 680 168
33 481 911
34 411 287
35 491 796
36 197 78
37 761 166
38 744 57
39 872 945
40 103 769
41 821 912
42 558 195
43 704 359
44 576 198
45 585 499
46 494 887
47 415 682
48 722 481
49 301 485
50 616 18
